c preprocessed version of graph06pp, 76 vertices, 252 edges
p td 76 252
0 1
39 0
0 58
62 0
64 0
65 0
53 0
1 2
6 1
1 27
1 24
1 26
1 67
22 1
3 2
5 2
9 2
27 2
24 2
25 2
67 2
52 2
4 3
28 3
3 55
3 37
68 3
15 3
53 3
4 5
4 28
4 14
4 55
15 4
51 4
5 6
5 26
5 27
5 24
5 67
6 7
66 6
6 26
6 24
6 67
8 7
7 19
66 7
32 7
31 7
42 7
8 9
8 66
8 32
8 31
43 8
41 8
42 8
10 9
18 9
69 9
68 9
22 9
23 9
10 11
10 20
68 10
22 10
23 10
12 11
11 29
11 56
55 11
12 13
12 57
12 56
15 12
69 12
13 14
13 17
16 13
60 13
61 13
69 13
15 14
52 14
15 16
15 60
15 37
61 15
16 17
16 24
16 60
16 61
18 17
60 17
61 17
51 17
18 19
18 20
18 21
18 47
18 48
61 18
19 20
21 19
19 48
46 19
45 19
21 20
47 20
45 20
22 21
21 57
47 21
21 48
45 21
22 23
68 22
69 22
23 24
68 23
23 48
69 23
25 24
27 24
67 24
26 25
25 27
25 67
28 27
28 29
28 37
28 55
30 29
55 29
56 29
30 31
50 30
51 30
30 57
52 30
31 32
31 66
43 31
42 31
33 32
66 32
43 32
33 34
33 43
33 55
44 33
49 33
34 35
44 34
49 34
35 36
35 38
35 40
63 35
36 37
36 38
36 40
41 36
39 38
41 38
39 40
41 40
63 40
42 41
41 54
63 41
42 43
42 66
42 54
44 43
45 44
44 49
45 46
45 49
46 47
47 48
50 49
51 50
50 52
53 50
51 52
53 54
53 58
53 59
62 53
64 53
65 53
53 63
54 55
54 58
62 54
64 54
65 54
55 56
56 57
58 59
64 58
65 58
60 59
62 59
64 59
65 59
60 61
62 63
62 65
62 64
64 63
65 63
64 65
69 68
70 71
70 42
70 72
70 41
70 54
70 73
70 74
71 75
71 74
71 46
71 45
71 72
71 73
72 75
72 74
72 42
72 60
72 73
73 75
73 16
73 74
73 42
73 65
74 75
74 15
74 34
74 42
75 70
75 35
75 36
75 38
75 39
75 40
75 41
75 63
